20

38 
14 21 
16 30 50 
23 33 37 38 
5 48 44 34 37 
12 9 16 25 23 27 
22 2 11 24 12 48 42 
5 8 32 30 40 5 6 44 
33 43 31 32 47 34 20 23 40 
40 39 4 21 17 17 6 38 11 48 
38 27 42 44 38 32 27 35 18 42 22 
28 47 36 26 36 39 35 17 43 43 23 22 
10 1 3 37 30 2 39 27 18 11 7 3 23 
30 24 31 45 49 6 21 34 31 11 20 25 22 31 
41 26 39 7 34 22 13 29 8 24 38 28 38 18 42 
3 40 6 33 7 13 20 26 16 26 28 27 21 1 36 37 
25 33 8 13 3 33 43 13 31 31 20 33 39 4 49 4 15 
2 32 11 33 21 41 44 28 25 44 23 2 40 21 40 2 24 43 
48 11 6 34 9 3 39 16 27 4 20 18 3 11 2 12 4 7 34 
